#       time        depth ve_stress_xx ve_stress_yy ve_stress_xy ve_stress_xx_old ve_stress_yy_old ve_stress_xy_old beam
           0          500            0            0            0            0            0            0            0
           0         1500            0            0            0            0            0            0    0.0505956
           0         2500            0            0            0            0            0            0     0.356151
           0         3500            0            0            0            0            0            0            0
           0         4500            0            0            0            0            0            0            0
        1000          500      1140.87        -1044     -46013.3      1060.21     -963.339       -46081  4.66713e-09
        1000         1500     -13315.1      14719.8      -171595     -14341.9      15746.6      -171198    0.0484755
        1000         2500      -196320      96583.3      -406904      -194404      94667.1      -407524     0.358109
        1000         3500      643.011      79.9842     -70117.9      555.346      167.649     -70109.8  0.000160564
        1000         4500      805.942     -775.836     -16240.9      818.529     -788.423     -16200.8  6.30753e-08
