#       time        depth ve_stress_xx ve_stress_yy ve_stress_xy ve_stress_xx_old ve_stress_yy_old ve_stress_xy_old beam
           0          500            0            0            0            0            0            0            0
           0         1500            0            0            0            0            0            0    0.0505956
           0         2500            0            0            0            0            0            0     0.356151
           0         3500            0            0            0            0            0            0            0
           0         4500            0            0            0            0            0            0            0
        1000          500      1111.27     -1111.27     -46012.5      1028.93     -1028.93     -46074.9  5.62924e-09
        1000         1500     -14001.8      14001.8      -171614     -15062.8      15062.8      -171194    0.0484358
        1000         2500      -146466       146466      -406884      -144449       144449      -407511     0.358146
        1000         3500      298.232     -298.232     -70114.2      202.343     -202.343     -70121.8  0.000162507
        1000         4500      804.472     -804.472     -16241.7      816.754     -816.754     -16205.5   6.5712e-08
