#       time        depth ve_stress_xx ve_stress_yy ve_stress_xy ve_stress_xx_old ve_stress_yy_old ve_stress_xy_old
           0        10000            0            0            0            0            0            0
           0        30000            0            0            0            0            0            0
           0        50000            0            0            0            0            0            0
           0        70000            0            0            0            0            0            0
           0        90000            0            0            0            0            0            0
        1000        10000        1e+06       -1e+06    0.0051176        1e+06       -1e+06   0.00511403
        1000        30000        1e+06       -1e+06   -0.0010603        1e+06       -1e+06  -0.00105765
        1000        50000        1e+06       -1e+06  -0.00284634        1e+06       -1e+06  -0.00284823
        1000        70000        1e+06       -1e+06   0.00823483        1e+06       -1e+06   0.00823285
        1000        90000        1e+06       -1e+06  -0.00914654        1e+06       -1e+06  -0.00914397
        2000        10000        1e+06       -1e+06   0.00512615        1e+06       -1e+06   0.00512258
        2000        30000        1e+06       -1e+06  -0.00106377        1e+06       -1e+06  -0.00106113
        2000        50000        1e+06       -1e+06  -0.00284723        1e+06       -1e+06  -0.00284913
        2000        70000        1e+06       -1e+06   0.00822984        1e+06       -1e+06   0.00822786
        2000        90000        1e+06       -1e+06  -0.00913887        1e+06       -1e+06  -0.00913631
